param n := 120;
param c := 10000
param : V : p w :=
   0	  73	 373
   1	  80	 267
   2	  71	 360
   3	   9	 432
   4	 100	 279
   5	  81	 289
   6	  68	 462
   7	  72	 263
   8	  35	 275
   9	  26	 480
  10	   5	 254
  11	   6	 266
  12	  43	 488
  13	  84	 252
  14	 100	 260
  15	  31	 484
  16	  58	 255
  17	  56	 261
  18	  74	 414
  19	  32	 265
  20	  76	 321
  21	  86	 464
  22	  93	 266
  23	  64	 270
  24	  21	 370
  25	  39	 280
  26	  24	 350
  27	  44	 452
  28	  36	 272
  29	  37	 276
  30	  69	 446
  31	  38	 269
  32	  80	 285
  33	  10	 447
  34	  51	 267
  35	  74	 286
  36	  49	 430
  37	  51	 256
  38	  47	 314
  39	   5	 465
  40	  26	 263
  41	  83	 272
  42	  38	 473
  43	  22	 259
  44	  87	 268
  45	   2	 409
  46	  61	 288
  47	  29	 303
  48	  18	 499
  49	   4	 250
  50	  82	 251
  51	   7	 483
  52	  47	 252
  53	  21	 265
  54	  83	 384
  55	  87	 283
  56	  26	 333
  57	  64	 484
  58	  95	 251
  59	  88	 265
  60	  83	 481
  61	  31	 257
  62	  78	 262
  63	  23	 401
  64	  58	 298
  65	  36	 301
  66	  33	 396
  67	  86	 289
  68	  57	 315
  69	  77	 382
  70	  95	 250
  71	  89	 368
  72	   4	 410
  73	  89	 256
  74	  20	 334
  75	  84	 497
  76	  18	 250
  77	  33	 253
  78	  48	 359
  79	  65	 317
  80	  74	 324
  81	  56	 424
  82	  63	 251
  83	  82	 325
  84	   7	 357
  85	  15	 306
  86	  64	 337
  87	  56	 396
  88	  42	 254
  89	  99	 350
  90	  18	 469
  91	  98	 258
  92	  53	 273
  93	  64	 391
  94	  42	 274
  95	  34	 335
  96	  12	 426
  97	  39	 278
  98	  55	 296
  99	  78	 434
 100	  19	 268
 101	  41	 298
 102	  79	 491
 103	   9	 251
 104	  32	 258
 105	  83	 460
 106	   5	 261
 107	   4	 279
 108	  52	 403
 109	  99	 289
 110	  66	 308
 111	  10	 436
 112	  70	 266
 113	  63	 298
 114	  92	 350
 115	  93	 322
 116	  86	 328
 117	  29	 419
 118	   9	 269
 119	  67	 312
;

set E :=
   0	   5
   0	   6
   0	   8
   0	  14
   0	  17
   0	  26
   0	  31
   0	  32
   0	  34
   0	  37
   0	  47
   0	  51
   0	  52
   0	  53
   0	  54
   0	  60
   0	  65
   0	  71
   0	  83
   0	  85
   0	  88
   0	  92
   0	  97
   0	 103
   0	 105
   0	 106
   0	 111
   0	 118
   1	   7
   1	   8
   1	  11
   1	  16
   1	  20
   1	  29
   1	  35
   1	  36
   1	  39
   1	  41
   1	  48
   1	  54
   1	  56
   1	  58
   1	  69
   1	  74
   1	  98
   1	  99
   1	 101
   1	 106
   2	   8
   2	  14
   2	  15
   2	  16
   2	  25
   2	  37
   2	  42
   2	  45
   2	  50
   2	  51
   2	  52
   2	  69
   2	  74
   2	  76
   2	  78
   2	  79
   2	  88
   2	  90
   2	  96
   2	  99
   2	 111
   3	   9
   3	  10
   3	  12
   3	  16
   3	  18
   3	  43
   3	  49
   3	  50
   3	  52
   3	  57
   3	  61
   3	  62
   3	  78
   3	  82
   3	  87
   3	  88
   3	  91
   3	  93
   3	  94
   3	  95
   3	 118
   4	   7
   4	  23
   4	  26
   4	  29
   4	  39
   4	  45
   4	  46
   4	  52
   4	  55
   4	  64
   4	  75
   4	  76
   4	  84
   4	  91
   4	  93
   4	  94
   4	 101
   4	 110
   4	 111
   4	 116
   4	 117
   4	 118
   5	  12
   5	  17
   5	  22
   5	  24
   5	  27
   5	  29
   5	  36
   5	  42
   5	  47
   5	  49
   5	  53
   5	  59
   5	  62
   5	  67
   5	  79
   5	  91
   5	  94
   5	  97
   5	  99
   5	 111
   5	 115
   5	 116
   5	 117
   5	 118
   6	  13
   6	  19
   6	  29
   6	  51
   6	  57
   6	  60
   6	  73
   6	  76
   6	  78
   6	  80
   6	  86
   6	  88
   6	  99
   6	 109
   6	 112
   6	 114
   6	 118
   7	   8
   7	  23
   7	  25
   7	  36
   7	  40
   7	  43
   7	  44
   7	  51
   7	  53
   7	  54
   7	  55
   7	  58
   7	  71
   7	  75
   7	  76
   7	  87
   7	  95
   7	 100
   7	 104
   7	 105
   7	 108
   7	 118
   8	  11
   8	  13
   8	  15
   8	  16
   8	  26
   8	  28
   8	  34
   8	  38
   8	  41
   8	  46
   8	  52
   8	  56
   8	  59
   8	  65
   8	  71
   8	  74
   8	  82
   8	  93
   8	  96
   8	  97
   8	 103
   8	 108
   8	 114
   8	 116
   9	  12
   9	  25
   9	  26
   9	  31
   9	  33
   9	  38
   9	  43
   9	  46
   9	  54
   9	  56
   9	  63
   9	  71
   9	  74
   9	  78
   9	  79
   9	  80
   9	  81
   9	  88
   9	  91
   9	  92
   9	  95
   9	 101
   9	 110
  10	  11
  10	  14
  10	  15
  10	  19
  10	  22
  10	  28
  10	  35
  10	  41
  10	  46
  10	  53
  10	  61
  10	  64
  10	  66
  10	  70
  10	  72
  10	  73
  10	  81
  10	  84
  10	  86
  10	  89
  10	  90
  10	  95
  10	 114
  10	 117
  10	 119
  11	  15
  11	  19
  11	  23
  11	  24
  11	  31
  11	  32
  11	  38
  11	  41
  11	  44
  11	  48
  11	  58
  11	  66
  11	  84
  11	  87
  11	  91
  11	  99
  11	 100
  11	 106
  12	  14
  12	  17
  12	  18
  12	  24
  12	  25
  12	  27
  12	  31
  12	  36
  12	  38
  12	  42
  12	  45
  12	  47
  12	  65
  12	  68
  12	  69
  12	  73
  12	  74
  12	  81
  12	  82
  12	  99
  12	 106
  12	 113
  12	 116
  13	  22
  13	  26
  13	  27
  13	  42
  13	  43
  13	  47
  13	  48
  13	  51
  13	  63
  13	  68
  13	  76
  13	  78
  13	  79
  13	  80
  13	  95
  13	  96
  13	 100
  13	 107
  13	 119
  14	  16
  14	  18
  14	  20
  14	  25
  14	  34
  14	  37
  14	  39
  14	  45
  14	  49
  14	  89
  14	  90
  14	  96
  14	 107
  14	 110
  14	 111
  14	 118
  15	  17
  15	  19
  15	  20
  15	  32
  15	  35
  15	  49
  15	  50
  15	  64
  15	  76
  15	  82
  15	  88
  15	  89
  15	  97
  15	  98
  15	 104
  15	 105
  15	 106
  15	 116
  16	  22
  16	  31
  16	  36
  16	  42
  16	  46
  16	  52
  16	  56
  16	  59
  16	  68
  16	  69
  16	  70
  16	  78
  16	  79
  16	  82
  16	  83
  16	  85
  16	  88
  16	  89
  16	  93
  16	  95
  16	  97
  16	 111
  17	  23
  17	  26
  17	  27
  17	  28
  17	  36
  17	  39
  17	  45
  17	  48
  17	  53
  17	  61
  17	  74
  17	  77
  17	  80
  17	  88
  17	  95
  17	  96
  17	 101
  17	 107
  17	 112
  17	 116
  18	  30
  18	  31
  18	  46
  18	  51
  18	  53
  18	  71
  18	  75
  18	  84
  18	  85
  18	  90
  18	  91
  18	  96
  18	  98
  18	 110
  19	  22
  19	  28
  19	  32
  19	  35
  19	  39
  19	  43
  19	  45
  19	  49
  19	  52
  19	  56
  19	  62
  19	  69
  19	  87
  19	  94
  19	 104
  19	 108
  19	 110
  19	 111
  19	 113
  20	  32
  20	  34
  20	  37
  20	  47
  20	  50
  20	  66
  20	  73
  20	  80
  20	  82
  20	  83
  20	  84
  20	  89
  20	  95
  20	  99
  20	 103
  20	 111
  20	 114
  21	  23
  21	  24
  21	  31
  21	  38
  21	  42
  21	  50
  21	  61
  21	  66
  21	  67
  21	  68
  21	  71
  21	  76
  21	  93
  21	  99
  21	 103
  21	 110
  21	 115
  21	 117
  21	 118
  22	  23
  22	  32
  22	  33
  22	  41
  22	  43
  22	  50
  22	  52
  22	  70
  22	  72
  22	  75
  22	  85
  22	  96
  22	  97
  22	  98
  22	 104
  22	 108
  22	 109
  22	 113
  22	 116
  23	  26
  23	  33
  23	  35
  23	  37
  23	  47
  23	  53
  23	  58
  23	  65
  23	  66
  23	  68
  23	  69
  23	  74
  23	  76
  23	  77
  23	  80
  23	  84
  23	  87
  23	  90
  23	  92
  23	  94
  23	  96
  23	  97
  23	  98
  23	 100
  23	 105
  23	 106
  23	 107
  23	 108
  24	  25
  24	  30
  24	  32
  24	  34
  24	  44
  24	  46
  24	  47
  24	  52
  24	  58
  24	  61
  24	  66
  24	  69
  24	  72
  24	  76
  24	  82
  24	 102
  24	 103
  24	 111
  25	  27
  25	  31
  25	  35
  25	  38
  25	  47
  25	  48
  25	  55
  25	  62
  25	  67
  25	  71
  25	  74
  25	  79
  25	  88
  25	  93
  25	 108
  25	 111
  25	 118
  26	  29
  26	  36
  26	  40
  26	  44
  26	  45
  26	  53
  26	  54
  26	  57
  26	  58
  26	  63
  26	  66
  26	  71
  26	  75
  26	  84
  26	  89
  26	  93
  26	 103
  26	 104
  26	 105
  26	 107
  26	 114
  26	 115
  26	 117
  26	 118
  27	  28
  27	  34
  27	  36
  27	  38
  27	  39
  27	  40
  27	  44
  27	  54
  27	  64
  27	  75
  27	  78
  27	  80
  27	  86
  27	  94
  27	  95
  27	 111
  27	 112
  27	 118
  28	  37
  28	  48
  28	  49
  28	  55
  28	  57
  28	  61
  28	  69
  28	  71
  28	  80
  28	  84
  28	  85
  28	  95
  28	  96
  28	 101
  28	 107
  28	 110
  28	 112
  28	 115
  29	  32
  29	  34
  29	  38
  29	  39
  29	  43
  29	  45
  29	  48
  29	  52
  29	  58
  29	  61
  29	  62
  29	  69
  29	  71
  29	  72
  29	  73
  29	  74
  29	  75
  29	  84
  29	  90
  29	  91
  29	  93
  29	 109
  30	  31
  30	  32
  30	  43
  30	  51
  30	  54
  30	  55
  30	  58
  30	  62
  30	  64
  30	  68
  30	  74
  30	  79
  30	  80
  30	  83
  30	  85
  30	  91
  30	 101
  30	 108
  30	 114
  30	 118
  30	 119
  31	  40
  31	  46
  31	  48
  31	  50
  31	  53
  31	  65
  31	  66
  31	  71
  31	  75
  31	  77
  31	  82
  31	  86
  31	  92
  31	  93
  31	 103
  31	 104
  31	 115
  32	  34
  32	  43
  32	  45
  32	  47
  32	  52
  32	  63
  32	  66
  32	  71
  32	  81
  32	  91
  32	  96
  32	 100
  32	 102
  32	 105
  32	 109
  33	  38
  33	  40
  33	  50
  33	  53
  33	  55
  33	  69
  33	  87
  33	  89
  33	  91
  33	  96
  33	  97
  33	  98
  33	 100
  33	 102
  33	 104
  33	 106
  33	 113
  33	 114
  33	 115
  33	 117
  34	  40
  34	  42
  34	  43
  34	  50
  34	  54
  34	  61
  34	  66
  34	  67
  34	  88
  34	  90
  34	  93
  34	 100
  34	 108
  34	 111
  34	 117
  35	  36
  35	  37
  35	  39
  35	  43
  35	  50
  35	  52
  35	  54
  35	  59
  35	  61
  35	  63
  35	  69
  35	  70
  35	  71
  35	  76
  35	  79
  35	  81
  35	  82
  35	  85
  35	  97
  35	 100
  35	 101
  35	 102
  35	 107
  35	 116
  36	  42
  36	  45
  36	  69
  36	  73
  36	  87
  36	 107
  36	 109
  36	 115
  37	  43
  37	  50
  37	  59
  37	  63
  37	  68
  37	  83
  37	  85
  37	  93
  37	  96
  37	  97
  37	 100
  37	 102
  37	 104
  37	 106
  37	 119
  38	  40
  38	  43
  38	  44
  38	  51
  38	  52
  38	  56
  38	  58
  38	  61
  38	  71
  38	  73
  38	  76
  38	  77
  38	  80
  38	  81
  38	  82
  38	 102
  38	 105
  38	 106
  38	 107
  38	 111
  38	 115
  39	  42
  39	  45
  39	  49
  39	  51
  39	  54
  39	  63
  39	  66
  39	  69
  39	  73
  39	  75
  39	  78
  39	 100
  39	 107
  39	 116
  39	 117
  40	  43
  40	  48
  40	  56
  40	  57
  40	  62
  40	  65
  40	  70
  40	  71
  40	  84
  40	  85
  40	  87
  40	 109
  40	 110
  40	 117
  41	  45
  41	  49
  41	  51
  41	  54
  41	  58
  41	  60
  41	  62
  41	  65
  41	  68
  41	  71
  41	  75
  41	  76
  41	  77
  41	  78
  41	  87
  41	  88
  41	  94
  41	  95
  41	  97
  41	  99
  41	 103
  41	 104
  41	 108
  41	 111
  41	 113
  42	  50
  42	  54
  42	  59
  42	  63
  42	  66
  42	  74
  42	  80
  42	  81
  42	  84
  42	  88
  42	  94
  42	  99
  43	  44
  43	  47
  43	  49
  43	  57
  43	  58
  43	  63
  43	  64
  43	  69
  43	  74
  43	  81
  43	  82
  43	  83
  43	  89
  43	  94
  43	 100
  43	 101
  43	 103
  43	 115
  44	  45
  44	  46
  44	  47
  44	  49
  44	  54
  44	  56
  44	  57
  44	  58
  44	  59
  44	  63
  44	  64
  44	  83
  44	  91
  44	  98
  44	 100
  44	 106
  44	 119
  45	  47
  45	  55
  45	  58
  45	  59
  45	  61
  45	  67
  45	  69
  45	  71
  45	  77
  45	  95
  45	  97
  45	  98
  45	 102
  45	 105
  45	 113
  45	 116
  45	 117
  45	 118
  45	 119
  46	  68
  46	  75
  46	  76
  46	  78
  46	  83
  46	  84
  46	  98
  46	  99
  46	 111
  46	 116
  46	 119
  47	  49
  47	  52
  47	  54
  47	  57
  47	  61
  47	  65
  47	  68
  47	  69
  47	  73
  47	  82
  47	  85
  47	  89
  47	  92
  47	  94
  47	 115
  47	 117
  47	 118
  48	  52
  48	  57
  48	  64
  48	  72
  48	  79
  48	  81
  48	  85
  48	  92
  48	  95
  48	 100
  48	 104
  48	 107
  48	 108
  48	 110
  48	 111
  48	 112
  48	 116
  49	  50
  49	  54
  49	  63
  49	  69
  49	  74
  49	  84
  49	  87
  49	  95
  49	  96
  49	  98
  49	 102
  49	 104
  49	 112
  49	 114
  49	 115
  49	 116
  49	 119
  50	  54
  50	  56
  50	  65
  50	  69
  50	  71
  50	  73
  50	  75
  50	  85
  50	  88
  50	  89
  50	  90
  50	  92
  50	  93
  50	  95
  50	  96
  50	  99
  50	 100
  50	 109
  50	 110
  50	 112
  51	  61
  51	  64
  51	  65
  51	  70
  51	  86
  51	  87
  51	  89
  51	  92
  51	 103
  51	 108
  51	 116
  52	  60
  52	  61
  52	  62
  52	  64
  52	  66
  52	  72
  52	  73
  52	  82
  52	  85
  52	  86
  52	  93
  52	  94
  52	  97
  52	 106
  52	 109
  52	 114
  52	 116
  53	  54
  53	  57
  53	  61
  53	  63
  53	  64
  53	  66
  53	  68
  53	  72
  53	  73
  53	  78
  53	  79
  53	  80
  53	  84
  53	  85
  53	  91
  53	  98
  53	 102
  53	 104
  53	 106
  53	 107
  53	 110
  54	  63
  54	  64
  54	  70
  54	  76
  54	  78
  54	  81
  54	  85
  54	  87
  54	 105
  54	 111
  54	 114
  54	 115
  54	 118
  55	  58
  55	  59
  55	  84
  55	  92
  55	  94
  55	  99
  55	 106
  55	 110
  55	 113
  55	 114
  56	  64
  56	  68
  56	  83
  56	  93
  56	 107
  56	 109
  56	 110
  56	 112
  56	 113
  56	 115
  56	 117
  57	  58
  57	  60
  57	  68
  57	  69
  57	  77
  57	  80
  57	  82
  57	  87
  57	  93
  57	  96
  57	  98
  57	 105
  57	 112
  58	  59
  58	  67
  58	  69
  58	  79
  58	  81
  58	  88
  58	  90
  58	  93
  58	 101
  58	 104
  58	 106
  58	 110
  58	 112
  58	 115
  58	 118
  59	  63
  59	  67
  59	  68
  59	  70
  59	  74
  59	  81
  59	  82
  59	  83
  59	  98
  59	 100
  59	 113
  60	  62
  60	  66
  60	  69
  60	  71
  60	  74
  60	  90
  60	  94
  60	  95
  60	  97
  60	 100
  60	 107
  60	 111
  60	 115
  61	  63
  61	  66
  61	  67
  61	  71
  61	  76
  61	  78
  61	  83
  61	  84
  61	  87
  61	  89
  61	  93
  61	  95
  61	 105
  61	 117
  61	 119
  62	  71
  62	  73
  62	  76
  62	  81
  62	  83
  62	  87
  62	  97
  62	 102
  62	 103
  62	 115
  63	  64
  63	  66
  63	  71
  63	  72
  63	  73
  63	  79
  63	  82
  63	  84
  63	  86
  63	  88
  63	  93
  63	 109
  63	 113
  63	 114
  64	  80
  64	  81
  64	  86
  64	  92
  64	  94
  64	 100
  64	 114
  64	 116
  65	  66
  65	  71
  65	  72
  65	  77
  65	  78
  65	  79
  65	  88
  66	  75
  66	  83
  66	  85
  66	  95
  66	 107
  66	 109
  67	  68
  67	  82
  67	  84
  67	  88
  67	 102
  67	 113
  67	 116
  68	  76
  68	  77
  68	  80
  68	  86
  68	  98
  68	 109
  68	 111
  68	 113
  69	  70
  69	  75
  69	  77
  69	  91
  69	  93
  69	  94
  69	  99
  69	 104
  69	 106
  69	 115
  69	 118
  70	  72
  70	  75
  70	  78
  70	  83
  70	  84
  70	  85
  70	  86
  70	  94
  70	  98
  70	 113
  70	 114
  70	 119
  71	  79
  71	  83
  71	  96
  71	 104
  71	 106
  71	 109
  71	 111
  71	 113
  72	  73
  72	  78
  72	  81
  72	  82
  72	  88
  72	 100
  72	 104
  72	 111
  72	 115
  72	 116
  73	  79
  73	  91
  73	 106
  73	 116
  74	  75
  74	  76
  74	  77
  74	  82
  74	  95
  74	  98
  74	 100
  74	 101
  74	 107
  74	 108
  74	 114
  74	 117
  75	  79
  75	  84
  75	  85
  75	  87
  75	  88
  75	  89
  75	  96
  75	  97
  75	 107
  75	 116
  75	 118
  76	  91
  76	  99
  76	 100
  76	 102
  76	 114
  77	  83
  77	  91
  77	  97
  77	  98
  77	 103
  77	 104
  77	 110
  77	 115
  77	 117
  78	  82
  78	  90
  78	  95
  78	 103
  78	 104
  78	 105
  78	 106
  78	 108
  78	 111
  78	 113
  78	 115
  78	 117
  78	 118
  78	 119
  79	  83
  79	  87
  79	  93
  79	  95
  79	 101
  79	 102
  79	 107
  79	 109
  79	 113
  79	 118
  80	  85
  80	  92
  80	  93
  80	  94
  80	  97
  80	  98
  80	  99
  80	 106
  80	 108
  80	 112
  81	  97
  81	  98
  81	 105
  81	 106
  81	 109
  81	 111
  81	 115
  82	  89
  82	  90
  82	  93
  82	 101
  82	 106
  82	 108
  82	 110
  82	 113
  83	  85
  83	  91
  83	  94
  83	  98
  83	 103
  84	  94
  84	  98
  84	 100
  84	 104
  84	 106
  84	 116
  85	  89
  85	  95
  85	  96
  85	  99
  85	 105
  85	 109
  85	 110
  86	  89
  86	  96
  86	 100
  86	 106
  86	 107
  86	 111
  86	 115
  87	  92
  87	  94
  87	  98
  87	 111
  87	 113
  87	 118
  88	  91
  88	  92
  88	  93
  88	  94
  88	 100
  88	 116
  88	 117
  89	  93
  89	  98
  89	 100
  89	 101
  89	 109
  89	 115
  90	  93
  90	 103
  90	 115
  91	  97
  91	 100
  91	 101
  91	 105
  91	 115
  91	 118
  92	  94
  92	 101
  92	 104
  92	 109
  92	 111
  92	 116
  93	  95
  93	  96
  93	 100
  93	 103
  93	 107
  94	 101
  94	 102
  94	 105
  94	 119
  95	  96
  95	 103
  95	 106
  95	 111
  95	 118
  96	  99
  96	 100
  96	 107
  96	 110
  96	 112
  96	 114
  97	 107
  97	 110
  97	 115
  97	 117
  97	 118
  98	 105
  98	 109
  98	 110
  98	 115
  98	 119
  99	 102
  99	 110
  99	 111
  99	 113
  99	 118
 100	 103
 100	 108
 100	 111
 100	 115
 101	 107
 101	 111
 102	 109
 103	 106
 103	 107
 103	 112
 104	 108
 104	 112
 105	 112
 105	 119
 106	 108
 106	 109
 106	 117
 107	 109
 107	 110
 107	 111
 107	 118
 108	 109
 108	 113
 108	 119
 109	 113
 109	 116
 110	 117
 111	 112
 111	 113
 113	 117
 116	 118
;
